c 93_4_checker_5cl.cnf
c
c field = 93
c formula set type = 4_checker_5cl
c
p cnf 5 6
180 
182 
186 
188 
-190 
181 
183 
187 
189 
-191 
120 
152 
216 
248 
-280 
121 
153 
217 
249 
-281 
128 
156 
212 
240 
-100 
129 
157 
213 
241 
-101 
